c NeuroCodeBench 2.0 CNF formula with verdict Unsat
p cnf 19 26
-1 19 -10 7 18 17 0
1 16 -19 -4 0
-1 19 10 17 6 0
-1 -19 14 -7 6 9 -15 0
-1 -19 14 -7 -6 -10 0
-1 19 -10 7 18 -17 0
-1 19 10 -17 -14 0
-1 -19 14 -7 6 9 15 0
1 16 19 7 -18 0
1 16 -19 4 17 0
-1 -19 14 -7 6 -9 0
1 16 -19 4 -17 0
-1 -19 14 7 0
-1 19 -10 7 -18 11 0
-1 -19 -14 3 0
1 16 19 7 18 0
1 -16 0
-1 -19 -14 -3 0
1 16 19 -7 -9 0
-1 19 10 -17 14 -9 0
-1 -19 14 -7 -6 10 0
-1 19 -10 7 -18 -11 0
1 16 19 -7 9 0
-1 19 10 -17 14 9 0
-1 19 -10 -7 0
-1 19 10 17 -6 0
